88 4 
29 62 
99 41 
86 7 
69 48 
64 84 
80 31 
31 27 
14 76 
75 97 
79 72 
81 91 
72 2 
86 2 
14 87 
73 2 
43 2 
65 42 
95 3 
2 16 
51 66 
0 83 
97 31 
10 63 
59 37 
60 90 
9 93 
34 33 
95 72 
88 62 
